1227
1849
3752
2981
2686
1569
2398
595
2586
3114
1455
1264
3549
1156
1245
1743
2631
1162
1482
629
3293
675
1391
1454
1220
2243
3422
1909
2448
3067
3292
985
723
1250
2505
1506
2571
2771
3451
3655
1703
2936
3401
1673
1822
1454
2840
265
3079
3359
1441
2506
2147
2825
2736
1699
1856
512
3408
1239
1144
2056
947
2027
2045
1160
2810
845
3062
2683

18398
27481
68171
48104
46945
29706
35730
0
55009
57929
19695
20113
61080
10937
12234

397
593
1471
1038
1013
641
771
10
1187
1250
425
434
1318
236
264

2207.6

40
59
145
103
100
64
76
1
117
123
42
43
130
24
27
73
119
47
62
10
139
1
60
55
39
77
144
72
119
129
119
43
35
56
110
57
87
125
132
139
60
97
146
36
42
67
97
9
149
137
64
116
66
125
132
77
67
13
144
54
14
58
40
58
80
18
116
41
137
120
